n1 = 10;
adjacent1 = [| 0, 0, 1, 0, 0, 0, 1, 0, 0, 0
| 0, 0, 1, 1, 0, 0, 0, 0, 0, 0
| 1, 1, 0, 0, 1, 0, 0, 0, 0, 0
| 0, 1, 0, 0, 0, 0, 0, 1, 0, 0
| 0, 0, 1, 0, 0, 0, 0, 0, 0, 0
| 0, 0, 0, 0, 0, 0, 0, 1, 1, 1
| 1, 0, 0, 0, 0, 0, 0, 0, 0, 1
| 0, 0, 0, 1, 0, 1, 0, 0, 0, 0
| 0, 0, 0, 0, 0, 1, 0, 0, 0, 0
| 0, 0, 0, 0, 0, 1, 1, 0, 0, 0 |];
n2 = 10;
adjacent2 = [| 0, 0, 1, 0, 0, 0, 1, 0, 0, 0
| 0, 0, 1, 1, 0, 0, 0, 0, 0, 0
| 1, 1, 0, 0, 1, 0, 0, 0, 0, 0
| 0, 1, 0, 0, 0, 0, 0, 1, 0, 0
| 0, 0, 1, 0, 0, 0, 0, 0, 0, 0
| 0, 0, 0, 0, 0, 0, 0, 1, 1, 1
| 1, 0, 0, 0, 0, 0, 0, 0, 0, 1
| 0, 0, 0, 1, 0, 1, 0, 0, 0, 0
| 0, 0, 0, 0, 0, 1, 0, 0, 0, 0
| 0, 0, 0, 0, 0, 1, 1, 0, 0, 0 |];
vertexDeletionCost = [45, 45, 45, 45, 45, 45, 45, 45, 45, 45];
vertexInsertionCost = [45, 45, 45, 45, 45, 45, 45, 45, 45, 45];
vertexSubstitutionCost = [| 23.50531854708632, 90, 90, 90, 90, 90, 90, 90, 90, 90
| 90, 38.58108344772085, 90, 90, 90, 90, 90, 90, 90, 90
| 90, 90, 26.30589287593181, 90, 90, 90, 90, 90, 90, 90
| 90, 90, 90, 32.65348373451139, 90, 90, 90, 50.064957804835906, 90, 62.59792328823697
| 90, 90, 90, 90, 24.166091947189145, 90, 90, 90, 90, 90
| 90, 90, 90, 90, 90, 23.08679276123039, 90, 90, 90, 90
| 90, 90, 90, 90, 90, 90, 42.04759208325728, 90, 90, 90
| 90, 90, 90, 88.40955830678038, 90, 90, 90, 31.04834939252005, 90, 26.476404589747453
| 90, 90, 90, 90, 90, 90, 90, 90, 35.12833614050059, 90
| 90, 90, 90, 90, 90, 90, 90, 29.546573405388315, 90, 23.021728866442675 |];
edgeDeletionCost = [| 0.0, 0.0, 7.5, 0.0, 0.0, 0.0, 7.5, 0.0, 0.0, 0.0
| 0.0, 0.0, 7.5, 7.5, 0.0, 0.0, 0.0, 0.0, 0.0, 0.0
| 7.5, 7.5, 0.0, 0.0, 7.5, 0.0, 0.0, 0.0, 0.0, 0.0
| 0.0, 7.5, 0.0, 0.0, 0.0, 0.0, 0.0, 7.5, 0.0, 0.0
| 0.0, 0.0, 7.5, 0.0, 0.0, 0.0, 0.0, 0.0, 0.0, 0.0
| 0.0, 0.0, 0.0, 0.0, 0.0, 0.0, 0.0, 7.5, 7.5, 7.5
| 7.5, 0.0, 0.0, 0.0, 0.0, 0.0, 0.0, 0.0, 0.0, 7.5
| 0.0, 0.0, 0.0, 7.5, 0.0, 7.5, 0.0, 0.0, 0.0, 0.0
| 0.0, 0.0, 0.0, 0.0, 0.0, 7.5, 0.0, 0.0, 0.0, 0.0
| 0.0, 0.0, 0.0, 0.0, 0.0, 7.5, 7.5, 0.0, 0.0, 0.0 |];
edgeInsertionCost = [| 0.0, 0.0, 7.5, 0.0, 0.0, 0.0, 7.5, 0.0, 0.0, 0.0
| 0.0, 0.0, 7.5, 7.5, 0.0, 0.0, 0.0, 0.0, 0.0, 0.0
| 7.5, 7.5, 0.0, 0.0, 7.5, 0.0, 0.0, 0.0, 0.0, 0.0
| 0.0, 7.5, 0.0, 0.0, 0.0, 0.0, 0.0, 7.5, 0.0, 0.0
| 0.0, 0.0, 7.5, 0.0, 0.0, 0.0, 0.0, 0.0, 0.0, 0.0
| 0.0, 0.0, 0.0, 0.0, 0.0, 0.0, 0.0, 7.5, 7.5, 7.5
| 7.5, 0.0, 0.0, 0.0, 0.0, 0.0, 0.0, 0.0, 0.0, 7.5
| 0.0, 0.0, 0.0, 7.5, 0.0, 7.5, 0.0, 0.0, 0.0, 0.0
| 0.0, 0.0, 0.0, 0.0, 0.0, 7.5, 0.0, 0.0, 0.0, 0.0
| 0.0, 0.0, 0.0, 0.0, 0.0, 7.5, 7.5, 0.0, 0.0, 0.0 |];
edgeSubstitutionCost = array4d(1..n1, 1..n1, 1..n2, 1..n2, [0, 0, 7.5, 0, 0, 0, 7.5, 0, 0, 0, 0, 0, 7.5, 7.5, 0, 0, 0, 0, 0, 0, 7.5, 7.5, 0, 0, 7.5, 0, 0, 0, 0, 0, 0, 7.5, 0, 0, 0, 0, 0, 7.5, 0, 0, 0, 0, 7.5, 0, 0, 0, 0, 0, 0, 0, 0, 0, 0, 0, 0, 0, 0, 7.5, 7.5, 7.5, 7.5, 0, 0, 0, 0, 0, 0, 0, 0, 7.5, 0, 0, 0, 7.5, 0, 7.5, 0, 0, 0, 0, 0, 0, 0, 0, 0, 7.5, 0, 0, 0, 0, 0, 0, 0, 0, 0, 7.5, 7.5, 0, 0, 0, 0, 0, 7.5, 0, 0, 0, 7.5, 0, 0, 0, 0, 0, 7.5, 7.5, 0, 0, 0, 0, 0, 0, 7.5, 7.5, 0, 0, 7.5, 0, 0, 0, 0, 0, 0, 7.5, 0, 0, 0, 0, 0, 7.5, 0, 0, 0, 0, 7.5, 0, 0, 0, 0, 0, 0, 0, 0, 0, 0, 0, 0, 0, 0, 7.5, 7.5, 7.5, 7.5, 0, 0, 0, 0, 0, 0, 0, 0, 7.5, 0, 0, 0, 7.5, 0, 7.5, 0, 0, 0, 0, 0, 0, 0, 0, 0, 7.5, 0, 0, 0, 0, 0, 0, 0, 0, 0, 7.5, 7.5, 0, 0, 0, 7.5, 7.5, 0.0, 7.5, 7.5, 7.5, 0.0, 7.5, 7.5, 7.5, 7.5, 7.5, 0.0, 0.0, 7.5, 7.5, 7.5, 7.5, 7.5, 7.5, 0.0, 0.0, 7.5, 7.5, 0.0, 7.5, 7.5, 7.5, 7.5, 7.5, 7.5, 0.0, 7.5, 7.5, 7.5, 7.5, 7.5, 0.0, 7.5, 7.5, 7.5, 7.5, 0.0, 7.5, 7.5, 7.5, 7.5, 7.5, 7.5, 7.5, 7.5, 7.5, 7.5, 7.5, 7.5, 7.5, 7.5, 0.0, 0.0, 0.0, 0.0, 7.5, 7.5, 7.5, 7.5, 7.5, 7.5, 7.5, 7.5, 0.0, 7.5, 7.5, 7.5, 0.0, 7.5, 0.0, 7.5, 7.5, 7.5, 7.5, 7.5, 7.5, 7.5, 7.5, 7.5, 0.0, 7.5, 7.5, 7.5, 7.5, 7.5, 7.5, 7.5, 7.5, 7.5, 0.0, 0.0, 7.5, 7.5, 7.5, 0, 0, 7.5, 0, 0, 0, 7.5, 0, 0, 0, 0, 0, 7.5, 7.5, 0, 0, 0, 0, 0, 0, 7.5, 7.5, 0, 0, 7.5, 0, 0, 0, 0, 0, 0, 7.5, 0, 0, 0, 0, 0, 7.5, 0, 0, 0, 0, 7.5, 0, 0, 0, 0, 0, 0, 0, 0, 0, 0, 0, 0, 0, 0, 7.5, 7.5, 7.5, 7.5, 0, 0, 0, 0, 0, 0, 0, 0, 7.5, 0, 0, 0, 7.5, 0, 7.5, 0, 0, 0, 0, 0, 0, 0, 0, 0, 7.5, 0, 0, 0, 0, 0, 0, 0, 0, 0, 7.5, 7.5, 0, 0, 0, 0, 0, 7.5, 0, 0, 0, 7.5, 0, 0, 0, 0, 0, 7.5, 7.5, 0, 0, 0, 0, 0, 0, 7.5, 7.5, 0, 0, 7.5, 0, 0, 0, 0, 0, 0, 7.5, 0, 0, 0, 0, 0, 7.5, 0, 0, 0, 0, 7.5, 0, 0, 0, 0, 0, 0, 0, 0, 0, 0, 0, 0, 0, 0, 7.5, 7.5, 7.5, 7.5, 0, 0, 0, 0, 0, 0, 0, 0, 7.5, 0, 0, 0, 7.5, 0, 7.5, 0, 0, 0, 0, 0, 0, 0, 0, 0, 7.5, 0, 0, 0, 0, 0, 0, 0, 0, 0, 7.5, 7.5, 0, 0, 0, 0, 0, 7.5, 0, 0, 0, 7.5, 0, 0, 0, 0, 0, 7.5, 7.5, 0, 0, 0, 0, 0, 0, 7.5, 7.5, 0, 0, 7.5, 0, 0, 0, 0, 0, 0, 7.5, 0, 0, 0, 0, 0, 7.5, 0, 0, 0, 0, 7.5, 0, 0, 0, 0, 0, 0, 0, 0, 0, 0, 0, 0, 0, 0, 7.5, 7.5, 7.5, 7.5, 0, 0, 0, 0, 0, 0, 0, 0, 7.5, 0, 0, 0, 7.5, 0, 7.5, 0, 0, 0, 0, 0, 0, 0, 0, 0, 7.5, 0, 0, 0, 0, 0, 0, 0, 0, 0, 7.5, 7.5, 0, 0, 0, 7.5, 7.5, 0.0, 7.5, 7.5, 7.5, 0.0, 7.5, 7.5, 7.5, 7.5, 7.5, 0.0, 0.0, 7.5, 7.5, 7.5, 7.5, 7.5, 7.5, 0.0, 0.0, 7.5, 7.5, 0.0, 7.5, 7.5, 7.5, 7.5, 7.5, 7.5, 0.0, 7.5, 7.5, 7.5, 7.5, 7.5, 0.0, 7.5, 7.5, 7.5, 7.5, 0.0, 7.5, 7.5, 7.5, 7.5, 7.5, 7.5, 7.5, 7.5, 7.5, 7.5, 7.5, 7.5, 7.5, 7.5, 0.0, 0.0, 0.0, 0.0, 7.5, 7.5, 7.5, 7.5, 7.5, 7.5, 7.5, 7.5, 0.0, 7.5, 7.5, 7.5, 0.0, 7.5, 0.0, 7.5, 7.5, 7.5, 7.5, 7.5, 7.5, 7.5, 7.5, 7.5, 0.0, 7.5, 7.5, 7.5, 7.5, 7.5, 7.5, 7.5, 7.5, 7.5, 0.0, 0.0, 7.5, 7.5, 7.5, 0, 0, 7.5, 0, 0, 0, 7.5, 0, 0, 0, 0, 0, 7.5, 7.5, 0, 0, 0, 0, 0, 0, 7.5, 7.5, 0, 0, 7.5, 0, 0, 0, 0, 0, 0, 7.5, 0, 0, 0, 0, 0, 7.5, 0, 0, 0, 0, 7.5, 0, 0, 0, 0, 0, 0, 0, 0, 0, 0, 0, 0, 0, 0, 7.5, 7.5, 7.5, 7.5, 0, 0, 0, 0, 0, 0, 0, 0, 7.5, 0, 0, 0, 7.5, 0, 7.5, 0, 0, 0, 0, 0, 0, 0, 0, 0, 7.5, 0, 0, 0, 0, 0, 0, 0, 0, 0, 7.5, 7.5, 0, 0, 0, 0, 0, 7.5, 0, 0, 0, 7.5, 0, 0, 0, 0, 0, 7.5, 7.5, 0, 0, 0, 0, 0, 0, 7.5, 7.5, 0, 0, 7.5, 0, 0, 0, 0, 0, 0, 7.5, 0, 0, 0, 0, 0, 7.5, 0, 0, 0, 0, 7.5, 0, 0, 0, 0, 0, 0, 0, 0, 0, 0, 0, 0, 0, 0, 7.5, 7.5, 7.5, 7.5, 0, 0, 0, 0, 0, 0, 0, 0, 7.5, 0, 0, 0, 7.5, 0, 7.5, 0, 0, 0, 0, 0, 0, 0, 0, 0, 7.5, 0, 0, 0, 0, 0, 0, 0, 0, 0, 7.5, 7.5, 0, 0, 0, 0, 0, 7.5, 0, 0, 0, 7.5, 0, 0, 0, 0, 0, 7.5, 7.5, 0, 0, 0, 0, 0, 0, 7.5, 7.5, 0, 0, 7.5, 0, 0, 0, 0, 0, 0, 7.5, 0, 0, 0, 0, 0, 7.5, 0, 0, 0, 0, 7.5, 0, 0, 0, 0, 0, 0, 0, 0, 0, 0, 0, 0, 0, 0, 7.5, 7.5, 7.5, 7.5, 0, 0, 0, 0, 0, 0, 0, 0, 7.5, 0, 0, 0, 7.5, 0, 7.5, 0, 0, 0, 0, 0, 0, 0, 0, 0, 7.5, 0, 0, 0, 0, 0, 0, 0, 0, 0, 7.5, 7.5, 0, 0, 0, 0, 0, 7.5, 0, 0, 0, 7.5, 0, 0, 0, 0, 0, 7.5, 7.5, 0, 0, 0, 0, 0, 0, 7.5, 7.5, 0, 0, 7.5, 0, 0, 0, 0, 0, 0, 7.5, 0, 0, 0, 0, 0, 7.5, 0, 0, 0, 0, 7.5, 0, 0, 0, 0, 0, 0, 0, 0, 0, 0, 0, 0, 0, 0, 7.5, 7.5, 7.5, 7.5, 0, 0, 0, 0, 0, 0, 0, 0, 7.5, 0, 0, 0, 7.5, 0, 7.5, 0, 0, 0, 0, 0, 0, 0, 0, 0, 7.5, 0, 0, 0, 0, 0, 0, 0, 0, 0, 7.5, 7.5, 0, 0, 0, 0, 0, 7.5, 0, 0, 0, 7.5, 0, 0, 0, 0, 0, 7.5, 7.5, 0, 0, 0, 0, 0, 0, 7.5, 7.5, 0, 0, 7.5, 0, 0, 0, 0, 0, 0, 7.5, 0, 0, 0, 0, 0, 7.5, 0, 0, 0, 0, 7.5, 0, 0, 0, 0, 0, 0, 0, 0, 0, 0, 0, 0, 0, 0, 7.5, 7.5, 7.5, 7.5, 0, 0, 0, 0, 0, 0, 0, 0, 7.5, 0, 0, 0, 7.5, 0, 7.5, 0, 0, 0, 0, 0, 0, 0, 0, 0, 7.5, 0, 0, 0, 0, 0, 0, 0, 0, 0, 7.5, 7.5, 0, 0, 0, 7.5, 7.5, 0.0, 7.5, 7.5, 7.5, 0.0, 7.5, 7.5, 7.5, 7.5, 7.5, 0.0, 0.0, 7.5, 7.5, 7.5, 7.5, 7.5, 7.5, 0.0, 0.0, 7.5, 7.5, 0.0, 7.5, 7.5, 7.5, 7.5, 7.5, 7.5, 0.0, 7.5, 7.5, 7.5, 7.5, 7.5, 0.0, 7.5, 7.5, 7.5, 7.5, 0.0, 7.5, 7.5, 7.5, 7.5, 7.5, 7.5, 7.5, 7.5, 7.5, 7.5, 7.5, 7.5, 7.5, 7.5, 0.0, 0.0, 0.0, 0.0, 7.5, 7.5, 7.5, 7.5, 7.5, 7.5, 7.5, 7.5, 0.0, 7.5, 7.5, 7.5, 0.0, 7.5, 0.0, 7.5, 7.5, 7.5, 7.5, 7.5, 7.5, 7.5, 7.5, 7.5, 0.0, 7.5, 7.5, 7.5, 7.5, 7.5, 7.5, 7.5, 7.5, 7.5, 0.0, 0.0, 7.5, 7.5, 7.5, 7.5, 7.5, 0.0, 7.5, 7.5, 7.5, 0.0, 7.5, 7.5, 7.5, 7.5, 7.5, 0.0, 0.0, 7.5, 7.5, 7.5, 7.5, 7.5, 7.5, 0.0, 0.0, 7.5, 7.5, 0.0, 7.5, 7.5, 7.5, 7.5, 7.5, 7.5, 0.0, 7.5, 7.5, 7.5, 7.5, 7.5, 0.0, 7.5, 7.5, 7.5, 7.5, 0.0, 7.5, 7.5, 7.5, 7.5, 7.5, 7.5, 7.5, 7.5, 7.5, 7.5, 7.5, 7.5, 7.5, 7.5, 0.0, 0.0, 0.0, 0.0, 7.5, 7.5, 7.5, 7.5, 7.5, 7.5, 7.5, 7.5, 0.0, 7.5, 7.5, 7.5, 0.0, 7.5, 0.0, 7.5, 7.5, 7.5, 7.5, 7.5, 7.5, 7.5, 7.5, 7.5, 0.0, 7.5, 7.5, 7.5, 7.5, 7.5, 7.5, 7.5, 7.5, 7.5, 0.0, 0.0, 7.5, 7.5, 7.5, 0, 0, 7.5, 0, 0, 0, 7.5, 0, 0, 0, 0, 0, 7.5, 7.5, 0, 0, 0, 0, 0, 0, 7.5, 7.5, 0, 0, 7.5, 0, 0, 0, 0, 0, 0, 7.5, 0, 0, 0, 0, 0, 7.5, 0, 0, 0, 0, 7.5, 0, 0, 0, 0, 0, 0, 0, 0, 0, 0, 0, 0, 0, 0, 7.5, 7.5, 7.5, 7.5, 0, 0, 0, 0, 0, 0, 0, 0, 7.5, 0, 0, 0, 7.5, 0, 7.5, 0, 0, 0, 0, 0, 0, 0, 0, 0, 7.5, 0, 0, 0, 0, 0, 0, 0, 0, 0, 7.5, 7.5, 0, 0, 0, 0, 0, 7.5, 0, 0, 0, 7.5, 0, 0, 0, 0, 0, 7.5, 7.5, 0, 0, 0, 0, 0, 0, 7.5, 7.5, 0, 0, 7.5, 0, 0, 0, 0, 0, 0, 7.5, 0, 0, 0, 0, 0, 7.5, 0, 0, 0, 0, 7.5, 0, 0, 0, 0, 0, 0, 0, 0, 0, 0, 0, 0, 0, 0, 7.5, 7.5, 7.5, 7.5, 0, 0, 0, 0, 0, 0, 0, 0, 7.5, 0, 0, 0, 7.5, 0, 7.5, 0, 0, 0, 0, 0, 0, 0, 0, 0, 7.5, 0, 0, 0, 0, 0, 0, 0, 0, 0, 7.5, 7.5, 0, 0, 0, 0, 0, 7.5, 0, 0, 0, 7.5, 0, 0, 0, 0, 0, 7.5, 7.5, 0, 0, 0, 0, 0, 0, 7.5, 7.5, 0, 0, 7.5, 0, 0, 0, 0, 0, 0, 7.5, 0, 0, 0, 0, 0, 7.5, 0, 0, 0, 0, 7.5, 0, 0, 0, 0, 0, 0, 0, 0, 0, 0, 0, 0, 0, 0, 7.5, 7.5, 7.5, 7.5, 0, 0, 0, 0, 0, 0, 0, 0, 7.5, 0, 0, 0, 7.5, 0, 7.5, 0, 0, 0, 0, 0, 0, 0, 0, 0, 7.5, 0, 0, 0, 0, 0, 0, 0, 0, 0, 7.5, 7.5, 0, 0, 0, 0, 0, 7.5, 0, 0, 0, 7.5, 0, 0, 0, 0, 0, 7.5, 7.5, 0, 0, 0, 0, 0, 0, 7.5, 7.5, 0, 0, 7.5, 0, 0, 0, 0, 0, 0, 7.5, 0, 0, 0, 0, 0, 7.5, 0, 0, 0, 0, 7.5, 0, 0, 0, 0, 0, 0, 0, 0, 0, 0, 0, 0, 0, 0, 7.5, 7.5, 7.5, 7.5, 0, 0, 0, 0, 0, 0, 0, 0, 7.5, 0, 0, 0, 7.5, 0, 7.5, 0, 0, 0, 0, 0, 0, 0, 0, 0, 7.5, 0, 0, 0, 0, 0, 0, 0, 0, 0, 7.5, 7.5, 0, 0, 0, 0, 0, 7.5, 0, 0, 0, 7.5, 0, 0, 0, 0, 0, 7.5, 7.5, 0, 0, 0, 0, 0, 0, 7.5, 7.5, 0, 0, 7.5, 0, 0, 0, 0, 0, 0, 7.5, 0, 0, 0, 0, 0, 7.5, 0, 0, 0, 0, 7.5, 0, 0, 0, 0, 0, 0, 0, 0, 0, 0, 0, 0, 0, 0, 7.5, 7.5, 7.5, 7.5, 0, 0, 0, 0, 0, 0, 0, 0, 7.5, 0, 0, 0, 7.5, 0, 7.5, 0, 0, 0, 0, 0, 0, 0, 0, 0, 7.5, 0, 0, 0, 0, 0, 0, 0, 0, 0, 7.5, 7.5, 0, 0, 0, 0, 0, 7.5, 0, 0, 0, 7.5, 0, 0, 0, 0, 0, 7.5, 7.5, 0, 0, 0, 0, 0, 0, 7.5, 7.5, 0, 0, 7.5, 0, 0, 0, 0, 0, 0, 7.5, 0, 0, 0, 0, 0, 7.5, 0, 0, 0, 0, 7.5, 0, 0, 0, 0, 0, 0, 0, 0, 0, 0, 0, 0, 0, 0, 7.5, 7.5, 7.5, 7.5, 0, 0, 0, 0, 0, 0, 0, 0, 7.5, 0, 0, 0, 7.5, 0, 7.5, 0, 0, 0, 0, 0, 0, 0, 0, 0, 7.5, 0, 0, 0, 0, 0, 0, 0, 0, 0, 7.5, 7.5, 0, 0, 0, 7.5, 7.5, 0.0, 7.5, 7.5, 7.5, 0.0, 7.5, 7.5, 7.5, 7.5, 7.5, 0.0, 0.0, 7.5, 7.5, 7.5, 7.5, 7.5, 7.5, 0.0, 0.0, 7.5, 7.5, 0.0, 7.5, 7.5, 7.5, 7.5, 7.5, 7.5, 0.0, 7.5, 7.5, 7.5, 7.5, 7.5, 0.0, 7.5, 7.5, 7.5, 7.5, 0.0, 7.5, 7.5, 7.5, 7.5, 7.5, 7.5, 7.5, 7.5, 7.5, 7.5, 7.5, 7.5, 7.5, 7.5, 0.0, 0.0, 0.0, 0.0, 7.5, 7.5, 7.5, 7.5, 7.5, 7.5, 7.5, 7.5, 0.0, 7.5, 7.5, 7.5, 0.0, 7.5, 0.0, 7.5, 7.5, 7.5, 7.5, 7.5, 7.5, 7.5, 7.5, 7.5, 0.0, 7.5, 7.5, 7.5, 7.5, 7.5, 7.5, 7.5, 7.5, 7.5, 0.0, 0.0, 7.5, 7.5, 7.5, 7.5, 7.5, 0.0, 7.5, 7.5, 7.5, 0.0, 7.5, 7.5, 7.5, 7.5, 7.5, 0.0, 0.0, 7.5, 7.5, 7.5, 7.5, 7.5, 7.5, 0.0, 0.0, 7.5, 7.5, 0.0, 7.5, 7.5, 7.5, 7.5, 7.5, 7.5, 0.0, 7.5, 7.5, 7.5, 7.5, 7.5, 0.0, 7.5, 7.5, 7.5, 7.5, 0.0, 7.5, 7.5, 7.5, 7.5, 7.5, 7.5, 7.5, 7.5, 7.5, 7.5, 7.5, 7.5, 7.5, 7.5, 0.0, 0.0, 0.0, 0.0, 7.5, 7.5, 7.5, 7.5, 7.5, 7.5, 7.5, 7.5, 0.0, 7.5, 7.5, 7.5, 0.0, 7.5, 0.0, 7.5, 7.5, 7.5, 7.5, 7.5, 7.5, 7.5, 7.5, 7.5, 0.0, 7.5, 7.5, 7.5, 7.5, 7.5, 7.5, 7.5, 7.5, 7.5, 0.0, 0.0, 7.5, 7.5, 7.5, 0, 0, 7.5, 0, 0, 0, 7.5, 0, 0, 0, 0, 0, 7.5, 7.5, 0, 0, 0, 0, 0, 0, 7.5, 7.5, 0, 0, 7.5, 0, 0, 0, 0, 0, 0, 7.5, 0, 0, 0, 0, 0, 7.5, 0, 0, 0, 0, 7.5, 0, 0, 0, 0, 0, 0, 0, 0, 0, 0, 0, 0, 0, 0, 7.5, 7.5, 7.5, 7.5, 0, 0, 0, 0, 0, 0, 0, 0, 7.5, 0, 0, 0, 7.5, 0, 7.5, 0, 0, 0, 0, 0, 0, 0, 0, 0, 7.5, 0, 0, 0, 0, 0, 0, 0, 0, 0, 7.5, 7.5, 0, 0, 0, 0, 0, 7.5, 0, 0, 0, 7.5, 0, 0, 0, 0, 0, 7.5, 7.5, 0, 0, 0, 0, 0, 0, 7.5, 7.5, 0, 0, 7.5, 0, 0, 0, 0, 0, 0, 7.5, 0, 0, 0, 0, 0, 7.5, 0, 0, 0, 0, 7.5, 0, 0, 0, 0, 0, 0, 0, 0, 0, 0, 0, 0, 0, 0, 7.5, 7.5, 7.5, 7.5, 0, 0, 0, 0, 0, 0, 0, 0, 7.5, 0, 0, 0, 7.5, 0, 7.5, 0, 0, 0, 0, 0, 0, 0, 0, 0, 7.5, 0, 0, 0, 0, 0, 0, 0, 0, 0, 7.5, 7.5, 0, 0, 0, 7.5, 7.5, 0.0, 7.5, 7.5, 7.5, 0.0, 7.5, 7.5, 7.5, 7.5, 7.5, 0.0, 0.0, 7.5, 7.5, 7.5, 7.5, 7.5, 7.5, 0.0, 0.0, 7.5, 7.5, 0.0, 7.5, 7.5, 7.5, 7.5, 7.5, 7.5, 0.0, 7.5, 7.5, 7.5, 7.5, 7.5, 0.0, 7.5, 7.5, 7.5, 7.5, 0.0, 7.5, 7.5, 7.5, 7.5, 7.5, 7.5, 7.5, 7.5, 7.5, 7.5, 7.5, 7.5, 7.5, 7.5, 0.0, 0.0, 0.0, 0.0, 7.5, 7.5, 7.5, 7.5, 7.5, 7.5, 7.5, 7.5, 0.0, 7.5, 7.5, 7.5, 0.0, 7.5, 0.0, 7.5, 7.5, 7.5, 7.5, 7.5, 7.5, 7.5, 7.5, 7.5, 0.0, 7.5, 7.5, 7.5, 7.5, 7.5, 7.5, 7.5, 7.5, 7.5, 0.0, 0.0, 7.5, 7.5, 7.5, 0, 0, 7.5, 0, 0, 0, 7.5, 0, 0, 0, 0, 0, 7.5, 7.5, 0, 0, 0, 0, 0, 0, 7.5, 7.5, 0, 0, 7.5, 0, 0, 0, 0, 0, 0, 7.5, 0, 0, 0, 0, 0, 7.5, 0, 0, 0, 0, 7.5, 0, 0, 0, 0, 0, 0, 0, 0, 0, 0, 0, 0, 0, 0, 7.5, 7.5, 7.5, 7.5, 0, 0, 0, 0, 0, 0, 0, 0, 7.5, 0, 0, 0, 7.5, 0, 7.5, 0, 0, 0, 0, 0, 0, 0, 0, 0, 7.5, 0, 0, 0, 0, 0, 0, 0, 0, 0, 7.5, 7.5, 0, 0, 0, 0, 0, 7.5, 0, 0, 0, 7.5, 0, 0, 0, 0, 0, 7.5, 7.5, 0, 0, 0, 0, 0, 0, 7.5, 7.5, 0, 0, 7.5, 0, 0, 0, 0, 0, 0, 7.5, 0, 0, 0, 0, 0, 7.5, 0, 0, 0, 0, 7.5, 0, 0, 0, 0, 0, 0, 0, 0, 0, 0, 0, 0, 0, 0, 7.5, 7.5, 7.5, 7.5, 0, 0, 0, 0, 0, 0, 0, 0, 7.5, 0, 0, 0, 7.5, 0, 7.5, 0, 0, 0, 0, 0, 0, 0, 0, 0, 7.5, 0, 0, 0, 0, 0, 0, 0, 0, 0, 7.5, 7.5, 0, 0, 0, 0, 0, 7.5, 0, 0, 0, 7.5, 0, 0, 0, 0, 0, 7.5, 7.5, 0, 0, 0, 0, 0, 0, 7.5, 7.5, 0, 0, 7.5, 0, 0, 0, 0, 0, 0, 7.5, 0, 0, 0, 0, 0, 7.5, 0, 0, 0, 0, 7.5, 0, 0, 0, 0, 0, 0, 0, 0, 0, 0, 0, 0, 0, 0, 7.5, 7.5, 7.5, 7.5, 0, 0, 0, 0, 0, 0, 0, 0, 7.5, 0, 0, 0, 7.5, 0, 7.5, 0, 0, 0, 0, 0, 0, 0, 0, 0, 7.5, 0, 0, 0, 0, 0, 0, 0, 0, 0, 7.5, 7.5, 0, 0, 0, 0, 0, 7.5, 0, 0, 0, 7.5, 0, 0, 0, 0, 0, 7.5, 7.5, 0, 0, 0, 0, 0, 0, 7.5, 7.5, 0, 0, 7.5, 0, 0, 0, 0, 0, 0, 7.5, 0, 0, 0, 0, 0, 7.5, 0, 0, 0, 0, 7.5, 0, 0, 0, 0, 0, 0, 0, 0, 0, 0, 0, 0, 0, 0, 7.5, 7.5, 7.5, 7.5, 0, 0, 0, 0, 0, 0, 0, 0, 7.5, 0, 0, 0, 7.5, 0, 7.5, 0, 0, 0, 0, 0, 0, 0, 0, 0, 7.5, 0, 0, 0, 0, 0, 0, 0, 0, 0, 7.5, 7.5, 0, 0, 0, 0, 0, 7.5, 0, 0, 0, 7.5, 0, 0, 0, 0, 0, 7.5, 7.5, 0, 0, 0, 0, 0, 0, 7.5, 7.5, 0, 0, 7.5, 0, 0, 0, 0, 0, 0, 7.5, 0, 0, 0, 0, 0, 7.5, 0, 0, 0, 0, 7.5, 0, 0, 0, 0, 0, 0, 0, 0, 0, 0, 0, 0, 0, 0, 7.5, 7.5, 7.5, 7.5, 0, 0, 0, 0, 0, 0, 0, 0, 7.5, 0, 0, 0, 7.5, 0, 7.5, 0, 0, 0, 0, 0, 0, 0, 0, 0, 7.5, 0, 0, 0, 0, 0, 0, 0, 0, 0, 7.5, 7.5, 0, 0, 0, 0, 0, 7.5, 0, 0, 0, 7.5, 0, 0, 0, 0, 0, 7.5, 7.5, 0, 0, 0, 0, 0, 0, 7.5, 7.5, 0, 0, 7.5, 0, 0, 0, 0, 0, 0, 7.5, 0, 0, 0, 0, 0, 7.5, 0, 0, 0, 0, 7.5, 0, 0, 0, 0, 0, 0, 0, 0, 0, 0, 0, 0, 0, 0, 7.5, 7.5, 7.5, 7.5, 0, 0, 0, 0, 0, 0, 0, 0, 7.5, 0, 0, 0, 7.5, 0, 7.5, 0, 0, 0, 0, 0, 0, 0, 0, 0, 7.5, 0, 0, 0, 0, 0, 0, 0, 0, 0, 7.5, 7.5, 0, 0, 0, 7.5, 7.5, 0.0, 7.5, 7.5, 7.5, 0.0, 7.5, 7.5, 7.5, 7.5, 7.5, 0.0, 0.0, 7.5, 7.5, 7.5, 7.5, 7.5, 7.5, 0.0, 0.0, 7.5, 7.5, 0.0, 7.5, 7.5, 7.5, 7.5, 7.5, 7.5, 0.0, 7.5, 7.5, 7.5, 7.5, 7.5, 0.0, 7.5, 7.5, 7.5, 7.5, 0.0, 7.5, 7.5, 7.5, 7.5, 7.5, 7.5, 7.5, 7.5, 7.5, 7.5, 7.5, 7.5, 7.5, 7.5, 0.0, 0.0, 0.0, 0.0, 7.5, 7.5, 7.5, 7.5, 7.5, 7.5, 7.5, 7.5, 0.0, 7.5, 7.5, 7.5, 0.0, 7.5, 0.0, 7.5, 7.5, 7.5, 7.5, 7.5, 7.5, 7.5, 7.5, 7.5, 0.0, 7.5, 7.5, 7.5, 7.5, 7.5, 7.5, 7.5, 7.5, 7.5, 0.0, 0.0, 7.5, 7.5, 7.5, 0, 0, 7.5, 0, 0, 0, 7.5, 0, 0, 0, 0, 0, 7.5, 7.5, 0, 0, 0, 0, 0, 0, 7.5, 7.5, 0, 0, 7.5, 0, 0, 0, 0, 0, 0, 7.5, 0, 0, 0, 0, 0, 7.5, 0, 0, 0, 0, 7.5, 0, 0, 0, 0, 0, 0, 0, 0, 0, 0, 0, 0, 0, 0, 7.5, 7.5, 7.5, 7.5, 0, 0, 0, 0, 0, 0, 0, 0, 7.5, 0, 0, 0, 7.5, 0, 7.5, 0, 0, 0, 0, 0, 0, 0, 0, 0, 7.5, 0, 0, 0, 0, 0, 0, 0, 0, 0, 7.5, 7.5, 0, 0, 0, 0, 0, 7.5, 0, 0, 0, 7.5, 0, 0, 0, 0, 0, 7.5, 7.5, 0, 0, 0, 0, 0, 0, 7.5, 7.5, 0, 0, 7.5, 0, 0, 0, 0, 0, 0, 7.5, 0, 0, 0, 0, 0, 7.5, 0, 0, 0, 0, 7.5, 0, 0, 0, 0, 0, 0, 0, 0, 0, 0, 0, 0, 0, 0, 7.5, 7.5, 7.5, 7.5, 0, 0, 0, 0, 0, 0, 0, 0, 7.5, 0, 0, 0, 7.5, 0, 7.5, 0, 0, 0, 0, 0, 0, 0, 0, 0, 7.5, 0, 0, 0, 0, 0, 0, 0, 0, 0, 7.5, 7.5, 0, 0, 0, 0, 0, 7.5, 0, 0, 0, 7.5, 0, 0, 0, 0, 0, 7.5, 7.5, 0, 0, 0, 0, 0, 0, 7.5, 7.5, 0, 0, 7.5, 0, 0, 0, 0, 0, 0, 7.5, 0, 0, 0, 0, 0, 7.5, 0, 0, 0, 0, 7.5, 0, 0, 0, 0, 0, 0, 0, 0, 0, 0, 0, 0, 0, 0, 7.5, 7.5, 7.5, 7.5, 0, 0, 0, 0, 0, 0, 0, 0, 7.5, 0, 0, 0, 7.5, 0, 7.5, 0, 0, 0, 0, 0, 0, 0, 0, 0, 7.5, 0, 0, 0, 0, 0, 0, 0, 0, 0, 7.5, 7.5, 0, 0, 0, 0, 0, 7.5, 0, 0, 0, 7.5, 0, 0, 0, 0, 0, 7.5, 7.5, 0, 0, 0, 0, 0, 0, 7.5, 7.5, 0, 0, 7.5, 0, 0, 0, 0, 0, 0, 7.5, 0, 0, 0, 0, 0, 7.5, 0, 0, 0, 0, 7.5, 0, 0, 0, 0, 0, 0, 0, 0, 0, 0, 0, 0, 0, 0, 7.5, 7.5, 7.5, 7.5, 0, 0, 0, 0, 0, 0, 0, 0, 7.5, 0, 0, 0, 7.5, 0, 7.5, 0, 0, 0, 0, 0, 0, 0, 0, 0, 7.5, 0, 0, 0, 0, 0, 0, 0, 0, 0, 7.5, 7.5, 0, 0, 0, 0, 0, 7.5, 0, 0, 0, 7.5, 0, 0, 0, 0, 0, 7.5, 7.5, 0, 0, 0, 0, 0, 0, 7.5, 7.5, 0, 0, 7.5, 0, 0, 0, 0, 0, 0, 7.5, 0, 0, 0, 0, 0, 7.5, 0, 0, 0, 0, 7.5, 0, 0, 0, 0, 0, 0, 0, 0, 0, 0, 0, 0, 0, 0, 7.5, 7.5, 7.5, 7.5, 0, 0, 0, 0, 0, 0, 0, 0, 7.5, 0, 0, 0, 7.5, 0, 7.5, 0, 0, 0, 0, 0, 0, 0, 0, 0, 7.5, 0, 0, 0, 0, 0, 0, 0, 0, 0, 7.5, 7.5, 0, 0, 0, 7.5, 7.5, 0.0, 7.5, 7.5, 7.5, 0.0, 7.5, 7.5, 7.5, 7.5, 7.5, 0.0, 0.0, 7.5, 7.5, 7.5, 7.5, 7.5, 7.5, 0.0, 0.0, 7.5, 7.5, 0.0, 7.5, 7.5, 7.5, 7.5, 7.5, 7.5, 0.0, 7.5, 7.5, 7.5, 7.5, 7.5, 0.0, 7.5, 7.5, 7.5, 7.5, 0.0, 7.5, 7.5, 7.5, 7.5, 7.5, 7.5, 7.5, 7.5, 7.5, 7.5, 7.5, 7.5, 7.5, 7.5, 0.0, 0.0, 0.0, 0.0, 7.5, 7.5, 7.5, 7.5, 7.5, 7.5, 7.5, 7.5, 0.0, 7.5, 7.5, 7.5, 0.0, 7.5, 0.0, 7.5, 7.5, 7.5, 7.5, 7.5, 7.5, 7.5, 7.5, 7.5, 0.0, 7.5, 7.5, 7.5, 7.5, 7.5, 7.5, 7.5, 7.5, 7.5, 0.0, 0.0, 7.5, 7.5, 7.5, 0, 0, 7.5, 0, 0, 0, 7.5, 0, 0, 0, 0, 0, 7.5, 7.5, 0, 0, 0, 0, 0, 0, 7.5, 7.5, 0, 0, 7.5, 0, 0, 0, 0, 0, 0, 7.5, 0, 0, 0, 0, 0, 7.5, 0, 0, 0, 0, 7.5, 0, 0, 0, 0, 0, 0, 0, 0, 0, 0, 0, 0, 0, 0, 7.5, 7.5, 7.5, 7.5, 0, 0, 0, 0, 0, 0, 0, 0, 7.5, 0, 0, 0, 7.5, 0, 7.5, 0, 0, 0, 0, 0, 0, 0, 0, 0, 7.5, 0, 0, 0, 0, 0, 0, 0, 0, 0, 7.5, 7.5, 0, 0, 0, 0, 0, 7.5, 0, 0, 0, 7.5, 0, 0, 0, 0, 0, 7.5, 7.5, 0, 0, 0, 0, 0, 0, 7.5, 7.5, 0, 0, 7.5, 0, 0, 0, 0, 0, 0, 7.5, 0, 0, 0, 0, 0, 7.5, 0, 0, 0, 0, 7.5, 0, 0, 0, 0, 0, 0, 0, 0, 0, 0, 0, 0, 0, 0, 7.5, 7.5, 7.5, 7.5, 0, 0, 0, 0, 0, 0, 0, 0, 7.5, 0, 0, 0, 7.5, 0, 7.5, 0, 0, 0, 0, 0, 0, 0, 0, 0, 7.5, 0, 0, 0, 0, 0, 0, 0, 0, 0, 7.5, 7.5, 0, 0, 0, 0, 0, 7.5, 0, 0, 0, 7.5, 0, 0, 0, 0, 0, 7.5, 7.5, 0, 0, 0, 0, 0, 0, 7.5, 7.5, 0, 0, 7.5, 0, 0, 0, 0, 0, 0, 7.5, 0, 0, 0, 0, 0, 7.5, 0, 0, 0, 0, 7.5, 0, 0, 0, 0, 0, 0, 0, 0, 0, 0, 0, 0, 0, 0, 7.5, 7.5, 7.5, 7.5, 0, 0, 0, 0, 0, 0, 0, 0, 7.5, 0, 0, 0, 7.5, 0, 7.5, 0, 0, 0, 0, 0, 0, 0, 0, 0, 7.5, 0, 0, 0, 0, 0, 0, 0, 0, 0, 7.5, 7.5, 0, 0, 0, 0, 0, 7.5, 0, 0, 0, 7.5, 0, 0, 0, 0, 0, 7.5, 7.5, 0, 0, 0, 0, 0, 0, 7.5, 7.5, 0, 0, 7.5, 0, 0, 0, 0, 0, 0, 7.5, 0, 0, 0, 0, 0, 7.5, 0, 0, 0, 0, 7.5, 0, 0, 0, 0, 0, 0, 0, 0, 0, 0, 0, 0, 0, 0, 7.5, 7.5, 7.5, 7.5, 0, 0, 0, 0, 0, 0, 0, 0, 7.5, 0, 0, 0, 7.5, 0, 7.5, 0, 0, 0, 0, 0, 0, 0, 0, 0, 7.5, 0, 0, 0, 0, 0, 0, 0, 0, 0, 7.5, 7.5, 0, 0, 0, 7.5, 7.5, 0.0, 7.5, 7.5, 7.5, 0.0, 7.5, 7.5, 7.5, 7.5, 7.5, 0.0, 0.0, 7.5, 7.5, 7.5, 7.5, 7.5, 7.5, 0.0, 0.0, 7.5, 7.5, 0.0, 7.5, 7.5, 7.5, 7.5, 7.5, 7.5, 0.0, 7.5, 7.5, 7.5, 7.5, 7.5, 0.0, 7.5, 7.5, 7.5, 7.5, 0.0, 7.5, 7.5, 7.5, 7.5, 7.5, 7.5, 7.5, 7.5, 7.5, 7.5, 7.5, 7.5, 7.5, 7.5, 0.0, 0.0, 0.0, 0.0, 7.5, 7.5, 7.5, 7.5, 7.5, 7.5, 7.5, 7.5, 0.0, 7.5, 7.5, 7.5, 0.0, 7.5, 0.0, 7.5, 7.5, 7.5, 7.5, 7.5, 7.5, 7.5, 7.5, 7.5, 0.0, 7.5, 7.5, 7.5, 7.5, 7.5, 7.5, 7.5, 7.5, 7.5, 0.0, 0.0, 7.5, 7.5, 7.5, 0, 0, 7.5, 0, 0, 0, 7.5, 0, 0, 0, 0, 0, 7.5, 7.5, 0, 0, 0, 0, 0, 0, 7.5, 7.5, 0, 0, 7.5, 0, 0, 0, 0, 0, 0, 7.5, 0, 0, 0, 0, 0, 7.5, 0, 0, 0, 0, 7.5, 0, 0, 0, 0, 0, 0, 0, 0, 0, 0, 0, 0, 0, 0, 7.5, 7.5, 7.5, 7.5, 0, 0, 0, 0, 0, 0, 0, 0, 7.5, 0, 0, 0, 7.5, 0, 7.5, 0, 0, 0, 0, 0, 0, 0, 0, 0, 7.5, 0, 0, 0, 0, 0, 0, 0, 0, 0, 7.5, 7.5, 0, 0, 0, 0, 0, 7.5, 0, 0, 0, 7.5, 0, 0, 0, 0, 0, 7.5, 7.5, 0, 0, 0, 0, 0, 0, 7.5, 7.5, 0, 0, 7.5, 0, 0, 0, 0, 0, 0, 7.5, 0, 0, 0, 0, 0, 7.5, 0, 0, 0, 0, 7.5, 0, 0, 0, 0, 0, 0, 0, 0, 0, 0, 0, 0, 0, 0, 7.5, 7.5, 7.5, 7.5, 0, 0, 0, 0, 0, 0, 0, 0, 7.5, 0, 0, 0, 7.5, 0, 7.5, 0, 0, 0, 0, 0, 0, 0, 0, 0, 7.5, 0, 0, 0, 0, 0, 0, 0, 0, 0, 7.5, 7.5, 0, 0, 0, 0, 0, 7.5, 0, 0, 0, 7.5, 0, 0, 0, 0, 0, 7.5, 7.5, 0, 0, 0, 0, 0, 0, 7.5, 7.5, 0, 0, 7.5, 0, 0, 0, 0, 0, 0, 7.5, 0, 0, 0, 0, 0, 7.5, 0, 0, 0, 0, 7.5, 0, 0, 0, 0, 0, 0, 0, 0, 0, 0, 0, 0, 0, 0, 7.5, 7.5, 7.5, 7.5, 0, 0, 0, 0, 0, 0, 0, 0, 7.5, 0, 0, 0, 7.5, 0, 7.5, 0, 0, 0, 0, 0, 0, 0, 0, 0, 7.5, 0, 0, 0, 0, 0, 0, 0, 0, 0, 7.5, 7.5, 0, 0, 0, 0, 0, 7.5, 0, 0, 0, 7.5, 0, 0, 0, 0, 0, 7.5, 7.5, 0, 0, 0, 0, 0, 0, 7.5, 7.5, 0, 0, 7.5, 0, 0, 0, 0, 0, 0, 7.5, 0, 0, 0, 0, 0, 7.5, 0, 0, 0, 0, 7.5, 0, 0, 0, 0, 0, 0, 0, 0, 0, 0, 0, 0, 0, 0, 7.5, 7.5, 7.5, 7.5, 0, 0, 0, 0, 0, 0, 0, 0, 7.5, 0, 0, 0, 7.5, 0, 7.5, 0, 0, 0, 0, 0, 0, 0, 0, 0, 7.5, 0, 0, 0, 0, 0, 0, 0, 0, 0, 7.5, 7.5, 0, 0, 0, 0, 0, 7.5, 0, 0, 0, 7.5, 0, 0, 0, 0, 0, 7.5, 7.5, 0, 0, 0, 0, 0, 0, 7.5, 7.5, 0, 0, 7.5, 0, 0, 0, 0, 0, 0, 7.5, 0, 0, 0, 0, 0, 7.5, 0, 0, 0, 0, 7.5, 0, 0, 0, 0, 0, 0, 0, 0, 0, 0, 0, 0, 0, 0, 7.5, 7.5, 7.5, 7.5, 0, 0, 0, 0, 0, 0, 0, 0, 7.5, 0, 0, 0, 7.5, 0, 7.5, 0, 0, 0, 0, 0, 0, 0, 0, 0, 7.5, 0, 0, 0, 0, 0, 0, 0, 0, 0, 7.5, 7.5, 0, 0, 0, 0, 0, 7.5, 0, 0, 0, 7.5, 0, 0, 0, 0, 0, 7.5, 7.5, 0, 0, 0, 0, 0, 0, 7.5, 7.5, 0, 0, 7.5, 0, 0, 0, 0, 0, 0, 7.5, 0, 0, 0, 0, 0, 7.5, 0, 0, 0, 0, 7.5, 0, 0, 0, 0, 0, 0, 0, 0, 0, 0, 0, 0, 0, 0, 7.5, 7.5, 7.5, 7.5, 0, 0, 0, 0, 0, 0, 0, 0, 7.5, 0, 0, 0, 7.5, 0, 7.5, 0, 0, 0, 0, 0, 0, 0, 0, 0, 7.5, 0, 0, 0, 0, 0, 0, 0, 0, 0, 7.5, 7.5, 0, 0, 0, 0, 0, 7.5, 0, 0, 0, 7.5, 0, 0, 0, 0, 0, 7.5, 7.5, 0, 0, 0, 0, 0, 0, 7.5, 7.5, 0, 0, 7.5, 0, 0, 0, 0, 0, 0, 7.5, 0, 0, 0, 0, 0, 7.5, 0, 0, 0, 0, 7.5, 0, 0, 0, 0, 0, 0, 0, 0, 0, 0, 0, 0, 0, 0, 7.5, 7.5, 7.5, 7.5, 0, 0, 0, 0, 0, 0, 0, 0, 7.5, 0, 0, 0, 7.5, 0, 7.5, 0, 0, 0, 0, 0, 0, 0, 0, 0, 7.5, 0, 0, 0, 0, 0, 0, 0, 0, 0, 7.5, 7.5, 0, 0, 0, 0, 0, 7.5, 0, 0, 0, 7.5, 0, 0, 0, 0, 0, 7.5, 7.5, 0, 0, 0, 0, 0, 0, 7.5, 7.5, 0, 0, 7.5, 0, 0, 0, 0, 0, 0, 7.5, 0, 0, 0, 0, 0, 7.5, 0, 0, 0, 0, 7.5, 0, 0, 0, 0, 0, 0, 0, 0, 0, 0, 0, 0, 0, 0, 7.5, 7.5, 7.5, 7.5, 0, 0, 0, 0, 0, 0, 0, 0, 7.5, 0, 0, 0, 7.5, 0, 7.5, 0, 0, 0, 0, 0, 0, 0, 0, 0, 7.5, 0, 0, 0, 0, 0, 0, 0, 0, 0, 7.5, 7.5, 0, 0, 0, 0, 0, 7.5, 0, 0, 0, 7.5, 0, 0, 0, 0, 0, 7.5, 7.5, 0, 0, 0, 0, 0, 0, 7.5, 7.5, 0, 0, 7.5, 0, 0, 0, 0, 0, 0, 7.5, 0, 0, 0, 0, 0, 7.5, 0, 0, 0, 0, 7.5, 0, 0, 0, 0, 0, 0, 0, 0, 0, 0, 0, 0, 0, 0, 7.5, 7.5, 7.5, 7.5, 0, 0, 0, 0, 0, 0, 0, 0, 7.5, 0, 0, 0, 7.5, 0, 7.5, 0, 0, 0, 0, 0, 0, 0, 0, 0, 7.5, 0, 0, 0, 0, 0, 0, 0, 0, 0, 7.5, 7.5, 0, 0, 0, 0, 0, 7.5, 0, 0, 0, 7.5, 0, 0, 0, 0, 0, 7.5, 7.5, 0, 0, 0, 0, 0, 0, 7.5, 7.5, 0, 0, 7.5, 0, 0, 0, 0, 0, 0, 7.5, 0, 0, 0, 0, 0, 7.5, 0, 0, 0, 0, 7.5, 0, 0, 0, 0, 0, 0, 0, 0, 0, 0, 0, 0, 0, 0, 7.5, 7.5, 7.5, 7.5, 0, 0, 0, 0, 0, 0, 0, 0, 7.5, 0, 0, 0, 7.5, 0, 7.5, 0, 0, 0, 0, 0, 0, 0, 0, 0, 7.5, 0, 0, 0, 0, 0, 0, 0, 0, 0, 7.5, 7.5, 0, 0, 0, 0, 0, 7.5, 0, 0, 0, 7.5, 0, 0, 0, 0, 0, 7.5, 7.5, 0, 0, 0, 0, 0, 0, 7.5, 7.5, 0, 0, 7.5, 0, 0, 0, 0, 0, 0, 7.5, 0, 0, 0, 0, 0, 7.5, 0, 0, 0, 0, 7.5, 0, 0, 0, 0, 0, 0, 0, 0, 0, 0, 0, 0, 0, 0, 7.5, 7.5, 7.5, 7.5, 0, 0, 0, 0, 0, 0, 0, 0, 7.5, 0, 0, 0, 7.5, 0, 7.5, 0, 0, 0, 0, 0, 0, 0, 0, 0, 7.5, 0, 0, 0, 0, 0, 0, 0, 0, 0, 7.5, 7.5, 0, 0, 0, 0, 0, 7.5, 0, 0, 0, 7.5, 0, 0, 0, 0, 0, 7.5, 7.5, 0, 0, 0, 0, 0, 0, 7.5, 7.5, 0, 0, 7.5, 0, 0, 0, 0, 0, 0, 7.5, 0, 0, 0, 0, 0, 7.5, 0, 0, 0, 0, 7.5, 0, 0, 0, 0, 0, 0, 0, 0, 0, 0, 0, 0, 0, 0, 7.5, 7.5, 7.5, 7.5, 0, 0, 0, 0, 0, 0, 0, 0, 7.5, 0, 0, 0, 7.5, 0, 7.5, 0, 0, 0, 0, 0, 0, 0, 0, 0, 7.5, 0, 0, 0, 0, 0, 0, 0, 0, 0, 7.5, 7.5, 0, 0, 0, 0, 0, 7.5, 0, 0, 0, 7.5, 0, 0, 0, 0, 0, 7.5, 7.5, 0, 0, 0, 0, 0, 0, 7.5, 7.5, 0, 0, 7.5, 0, 0, 0, 0, 0, 0, 7.5, 0, 0, 0, 0, 0, 7.5, 0, 0, 0, 0, 7.5, 0, 0, 0, 0, 0, 0, 0, 0, 0, 0, 0, 0, 0, 0, 7.5, 7.5, 7.5, 7.5, 0, 0, 0, 0, 0, 0, 0, 0, 7.5, 0, 0, 0, 7.5, 0, 7.5, 0, 0, 0, 0, 0, 0, 0, 0, 0, 7.5, 0, 0, 0, 0, 0, 0, 0, 0, 0, 7.5, 7.5, 0, 0, 0, 0, 0, 7.5, 0, 0, 0, 7.5, 0, 0, 0, 0, 0, 7.5, 7.5, 0, 0, 0, 0, 0, 0, 7.5, 7.5, 0, 0, 7.5, 0, 0, 0, 0, 0, 0, 7.5, 0, 0, 0, 0, 0, 7.5, 0, 0, 0, 0, 7.5, 0, 0, 0, 0, 0, 0, 0, 0, 0, 0, 0, 0, 0, 0, 7.5, 7.5, 7.5, 7.5, 0, 0, 0, 0, 0, 0, 0, 0, 7.5, 0, 0, 0, 7.5, 0, 7.5, 0, 0, 0, 0, 0, 0, 0, 0, 0, 7.5, 0, 0, 0, 0, 0, 0, 0, 0, 0, 7.5, 7.5, 0, 0, 0, 7.5, 7.5, 0.0, 7.5, 7.5, 7.5, 0.0, 7.5, 7.5, 7.5, 7.5, 7.5, 0.0, 0.0, 7.5, 7.5, 7.5, 7.5, 7.5, 7.5, 0.0, 0.0, 7.5, 7.5, 0.0, 7.5, 7.5, 7.5, 7.5, 7.5, 7.5, 0.0, 7.5, 7.5, 7.5, 7.5, 7.5, 0.0, 7.5, 7.5, 7.5, 7.5, 0.0, 7.5, 7.5, 7.5, 7.5, 7.5, 7.5, 7.5, 7.5, 7.5, 7.5, 7.5, 7.5, 7.5, 7.5, 0.0, 0.0, 0.0, 0.0, 7.5, 7.5, 7.5, 7.5, 7.5, 7.5, 7.5, 7.5, 0.0, 7.5, 7.5, 7.5, 0.0, 7.5, 0.0, 7.5, 7.5, 7.5, 7.5, 7.5, 7.5, 7.5, 7.5, 7.5, 0.0, 7.5, 7.5, 7.5, 7.5, 7.5, 7.5, 7.5, 7.5, 7.5, 0.0, 0.0, 7.5, 7.5, 7.5, 7.5, 7.5, 0.0, 7.5, 7.5, 7.5, 0.0, 7.5, 7.5, 7.5, 7.5, 7.5, 0.0, 0.0, 7.5, 7.5, 7.5, 7.5, 7.5, 7.5, 0.0, 0.0, 7.5, 7.5, 0.0, 7.5, 7.5, 7.5, 7.5, 7.5, 7.5, 0.0, 7.5, 7.5, 7.5, 7.5, 7.5, 0.0, 7.5, 7.5, 7.5, 7.5, 0.0, 7.5, 7.5, 7.5, 7.5, 7.5, 7.5, 7.5, 7.5, 7.5, 7.5, 7.5, 7.5, 7.5, 7.5, 0.0, 0.0, 0.0, 0.0, 7.5, 7.5, 7.5, 7.5, 7.5, 7.5, 7.5, 7.5, 0.0, 7.5, 7.5, 7.5, 0.0, 7.5, 0.0, 7.5, 7.5, 7.5, 7.5, 7.5, 7.5, 7.5, 7.5, 7.5, 0.0, 7.5, 7.5, 7.5, 7.5, 7.5, 7.5, 7.5, 7.5, 7.5, 0.0, 0.0, 7.5, 7.5, 7.5, 7.5, 7.5, 0.0, 7.5, 7.5, 7.5, 0.0, 7.5, 7.5, 7.5, 7.5, 7.5, 0.0, 0.0, 7.5, 7.5, 7.5, 7.5, 7.5, 7.5, 0.0, 0.0, 7.5, 7.5, 0.0, 7.5, 7.5, 7.5, 7.5, 7.5, 7.5, 0.0, 7.5, 7.5, 7.5, 7.5, 7.5, 0.0, 7.5, 7.5, 7.5, 7.5, 0.0, 7.5, 7.5, 7.5, 7.5, 7.5, 7.5, 7.5, 7.5, 7.5, 7.5, 7.5, 7.5, 7.5, 7.5, 0.0, 0.0, 0.0, 0.0, 7.5, 7.5, 7.5, 7.5, 7.5, 7.5, 7.5, 7.5, 0.0, 7.5, 7.5, 7.5, 0.0, 7.5, 0.0, 7.5, 7.5, 7.5, 7.5, 7.5, 7.5, 7.5, 7.5, 7.5, 0.0, 7.5, 7.5, 7.5, 7.5, 7.5, 7.5, 7.5, 7.5, 7.5, 0.0, 0.0, 7.5, 7.5, 7.5, 7.5, 7.5, 0.0, 7.5, 7.5, 7.5, 0.0, 7.5, 7.5, 7.5, 7.5, 7.5, 0.0, 0.0, 7.5, 7.5, 7.5, 7.5, 7.5, 7.5, 0.0, 0.0, 7.5, 7.5, 0.0, 7.5, 7.5, 7.5, 7.5, 7.5, 7.5, 0.0, 7.5, 7.5, 7.5, 7.5, 7.5, 0.0, 7.5, 7.5, 7.5, 7.5, 0.0, 7.5, 7.5, 7.5, 7.5, 7.5, 7.5, 7.5, 7.5, 7.5, 7.5, 7.5, 7.5, 7.5, 7.5, 0.0, 0.0, 0.0, 0.0, 7.5, 7.5, 7.5, 7.5, 7.5, 7.5, 7.5, 7.5, 0.0, 7.5, 7.5, 7.5, 0.0, 7.5, 0.0, 7.5, 7.5, 7.5, 7.5, 7.5, 7.5, 7.5, 7.5, 7.5, 0.0, 7.5, 7.5, 7.5, 7.5, 7.5, 7.5, 7.5, 7.5, 7.5, 0.0, 0.0, 7.5, 7.5, 7.5, 0, 0, 7.5, 0, 0, 0, 7.5, 0, 0, 0, 0, 0, 7.5, 7.5, 0, 0, 0, 0, 0, 0, 7.5, 7.5, 0, 0, 7.5, 0, 0, 0, 0, 0, 0, 7.5, 0, 0, 0, 0, 0, 7.5, 0, 0, 0, 0, 7.5, 0, 0, 0, 0, 0, 0, 0, 0, 0, 0, 0, 0, 0, 0, 7.5, 7.5, 7.5, 7.5, 0, 0, 0, 0, 0, 0, 0, 0, 7.5, 0, 0, 0, 7.5, 0, 7.5, 0, 0, 0, 0, 0, 0, 0, 0, 0, 7.5, 0, 0, 0, 0, 0, 0, 0, 0, 0, 7.5, 7.5, 0, 0, 0, 0, 0, 7.5, 0, 0, 0, 7.5, 0, 0, 0, 0, 0, 7.5, 7.5, 0, 0, 0, 0, 0, 0, 7.5, 7.5, 0, 0, 7.5, 0, 0, 0, 0, 0, 0, 7.5, 0, 0, 0, 0, 0, 7.5, 0, 0, 0, 0, 7.5, 0, 0, 0, 0, 0, 0, 0, 0, 0, 0, 0, 0, 0, 0, 7.5, 7.5, 7.5, 7.5, 0, 0, 0, 0, 0, 0, 0, 0, 7.5, 0, 0, 0, 7.5, 0, 7.5, 0, 0, 0, 0, 0, 0, 0, 0, 0, 7.5, 0, 0, 0, 0, 0, 0, 0, 0, 0, 7.5, 7.5, 0, 0, 0, 0, 0, 7.5, 0, 0, 0, 7.5, 0, 0, 0, 0, 0, 7.5, 7.5, 0, 0, 0, 0, 0, 0, 7.5, 7.5, 0, 0, 7.5, 0, 0, 0, 0, 0, 0, 7.5, 0, 0, 0, 0, 0, 7.5, 0, 0, 0, 0, 7.5, 0, 0, 0, 0, 0, 0, 0, 0, 0, 0, 0, 0, 0, 0, 7.5, 7.5, 7.5, 7.5, 0, 0, 0, 0, 0, 0, 0, 0, 7.5, 0, 0, 0, 7.5, 0, 7.5, 0, 0, 0, 0, 0, 0, 0, 0, 0, 7.5, 0, 0, 0, 0, 0, 0, 0, 0, 0, 7.5, 7.5, 0, 0, 0, 0, 0, 7.5, 0, 0, 0, 7.5, 0, 0, 0, 0, 0, 7.5, 7.5, 0, 0, 0, 0, 0, 0, 7.5, 7.5, 0, 0, 7.5, 0, 0, 0, 0, 0, 0, 7.5, 0, 0, 0, 0, 0, 7.5, 0, 0, 0, 0, 7.5, 0, 0, 0, 0, 0, 0, 0, 0, 0, 0, 0, 0, 0, 0, 7.5, 7.5, 7.5, 7.5, 0, 0, 0, 0, 0, 0, 0, 0, 7.5, 0, 0, 0, 7.5, 0, 7.5, 0, 0, 0, 0, 0, 0, 0, 0, 0, 7.5, 0, 0, 0, 0, 0, 0, 0, 0, 0, 7.5, 7.5, 0, 0, 0, 0, 0, 7.5, 0, 0, 0, 7.5, 0, 0, 0, 0, 0, 7.5, 7.5, 0, 0, 0, 0, 0, 0, 7.5, 7.5, 0, 0, 7.5, 0, 0, 0, 0, 0, 0, 7.5, 0, 0, 0, 0, 0, 7.5, 0, 0, 0, 0, 7.5, 0, 0, 0, 0, 0, 0, 0, 0, 0, 0, 0, 0, 0, 0, 7.5, 7.5, 7.5, 7.5, 0, 0, 0, 0, 0, 0, 0, 0, 7.5, 0, 0, 0, 7.5, 0, 7.5, 0, 0, 0, 0, 0, 0, 0, 0, 0, 7.5, 0, 0, 0, 0, 0, 0, 0, 0, 0, 7.5, 7.5, 0, 0, 0, 0, 0, 7.5, 0, 0, 0, 7.5, 0, 0, 0, 0, 0, 7.5, 7.5, 0, 0, 0, 0, 0, 0, 7.5, 7.5, 0, 0, 7.5, 0, 0, 0, 0, 0, 0, 7.5, 0, 0, 0, 0, 0, 7.5, 0, 0, 0, 0, 7.5, 0, 0, 0, 0, 0, 0, 0, 0, 0, 0, 0, 0, 0, 0, 7.5, 7.5, 7.5, 7.5, 0, 0, 0, 0, 0, 0, 0, 0, 7.5, 0, 0, 0, 7.5, 0, 7.5, 0, 0, 0, 0, 0, 0, 0, 0, 0, 7.5, 0, 0, 0, 0, 0, 0, 0, 0, 0, 7.5, 7.5, 0, 0, 0, 0, 0, 7.5, 0, 0, 0, 7.5, 0, 0, 0, 0, 0, 7.5, 7.5, 0, 0, 0, 0, 0, 0, 7.5, 7.5, 0, 0, 7.5, 0, 0, 0, 0, 0, 0, 7.5, 0, 0, 0, 0, 0, 7.5, 0, 0, 0, 0, 7.5, 0, 0, 0, 0, 0, 0, 0, 0, 0, 0, 0, 0, 0, 0, 7.5, 7.5, 7.5, 7.5, 0, 0, 0, 0, 0, 0, 0, 0, 7.5, 0, 0, 0, 7.5, 0, 7.5, 0, 0, 0, 0, 0, 0, 0, 0, 0, 7.5, 0, 0, 0, 0, 0, 0, 0, 0, 0, 7.5, 7.5, 0, 0, 0, 0, 0, 7.5, 0, 0, 0, 7.5, 0, 0, 0, 0, 0, 7.5, 7.5, 0, 0, 0, 0, 0, 0, 7.5, 7.5, 0, 0, 7.5, 0, 0, 0, 0, 0, 0, 7.5, 0, 0, 0, 0, 0, 7.5, 0, 0, 0, 0, 7.5, 0, 0, 0, 0, 0, 0, 0, 0, 0, 0, 0, 0, 0, 0, 7.5, 7.5, 7.5, 7.5, 0, 0, 0, 0, 0, 0, 0, 0, 7.5, 0, 0, 0, 7.5, 0, 7.5, 0, 0, 0, 0, 0, 0, 0, 0, 0, 7.5, 0, 0, 0, 0, 0, 0, 0, 0, 0, 7.5, 7.5, 0, 0, 0, 7.5, 7.5, 0.0, 7.5, 7.5, 7.5, 0.0, 7.5, 7.5, 7.5, 7.5, 7.5, 0.0, 0.0, 7.5, 7.5, 7.5, 7.5, 7.5, 7.5, 0.0, 0.0, 7.5, 7.5, 0.0, 7.5, 7.5, 7.5, 7.5, 7.5, 7.5, 0.0, 7.5, 7.5, 7.5, 7.5, 7.5, 0.0, 7.5, 7.5, 7.5, 7.5, 0.0, 7.5, 7.5, 7.5, 7.5, 7.5, 7.5, 7.5, 7.5, 7.5, 7.5, 7.5, 7.5, 7.5, 7.5, 0.0, 0.0, 0.0, 0.0, 7.5, 7.5, 7.5, 7.5, 7.5, 7.5, 7.5, 7.5, 0.0, 7.5, 7.5, 7.5, 0.0, 7.5, 0.0, 7.5, 7.5, 7.5, 7.5, 7.5, 7.5, 7.5, 7.5, 7.5, 0.0, 7.5, 7.5, 7.5, 7.5, 7.5, 7.5, 7.5, 7.5, 7.5, 0.0, 0.0, 7.5, 7.5, 7.5, 0, 0, 7.5, 0, 0, 0, 7.5, 0, 0, 0, 0, 0, 7.5, 7.5, 0, 0, 0, 0, 0, 0, 7.5, 7.5, 0, 0, 7.5, 0, 0, 0, 0, 0, 0, 7.5, 0, 0, 0, 0, 0, 7.5, 0, 0, 0, 0, 7.5, 0, 0, 0, 0, 0, 0, 0, 0, 0, 0, 0, 0, 0, 0, 7.5, 7.5, 7.5, 7.5, 0, 0, 0, 0, 0, 0, 0, 0, 7.5, 0, 0, 0, 7.5, 0, 7.5, 0, 0, 0, 0, 0, 0, 0, 0, 0, 7.5, 0, 0, 0, 0, 0, 0, 0, 0, 0, 7.5, 7.5, 0, 0, 0, 0, 0, 7.5, 0, 0, 0, 7.5, 0, 0, 0, 0, 0, 7.5, 7.5, 0, 0, 0, 0, 0, 0, 7.5, 7.5, 0, 0, 7.5, 0, 0, 0, 0, 0, 0, 7.5, 0, 0, 0, 0, 0, 7.5, 0, 0, 0, 0, 7.5, 0, 0, 0, 0, 0, 0, 0, 0, 0, 0, 0, 0, 0, 0, 7.5, 7.5, 7.5, 7.5, 0, 0, 0, 0, 0, 0, 0, 0, 7.5, 0, 0, 0, 7.5, 0, 7.5, 0, 0, 0, 0, 0, 0, 0, 0, 0, 7.5, 0, 0, 0, 0, 0, 0, 0, 0, 0, 7.5, 7.5, 0, 0, 0, 0, 0, 7.5, 0, 0, 0, 7.5, 0, 0, 0, 0, 0, 7.5, 7.5, 0, 0, 0, 0, 0, 0, 7.5, 7.5, 0, 0, 7.5, 0, 0, 0, 0, 0, 0, 7.5, 0, 0, 0, 0, 0, 7.5, 0, 0, 0, 0, 7.5, 0, 0, 0, 0, 0, 0, 0, 0, 0, 0, 0, 0, 0, 0, 7.5, 7.5, 7.5, 7.5, 0, 0, 0, 0, 0, 0, 0, 0, 7.5, 0, 0, 0, 7.5, 0, 7.5, 0, 0, 0, 0, 0, 0, 0, 0, 0, 7.5, 0, 0, 0, 0, 0, 0, 0, 0, 0, 7.5, 7.5, 0, 0, 0, 7.5, 7.5, 0.0, 7.5, 7.5, 7.5, 0.0, 7.5, 7.5, 7.5, 7.5, 7.5, 0.0, 0.0, 7.5, 7.5, 7.5, 7.5, 7.5, 7.5, 0.0, 0.0, 7.5, 7.5, 0.0, 7.5, 7.5, 7.5, 7.5, 7.5, 7.5, 0.0, 7.5, 7.5, 7.5, 7.5, 7.5, 0.0, 7.5, 7.5, 7.5, 7.5, 0.0, 7.5, 7.5, 7.5, 7.5, 7.5, 7.5, 7.5, 7.5, 7.5, 7.5, 7.5, 7.5, 7.5, 7.5, 0.0, 0.0, 0.0, 0.0, 7.5, 7.5, 7.5, 7.5, 7.5, 7.5, 7.5, 7.5, 0.0, 7.5, 7.5, 7.5, 0.0, 7.5, 0.0, 7.5, 7.5, 7.5, 7.5, 7.5, 7.5, 7.5, 7.5, 7.5, 0.0, 7.5, 7.5, 7.5, 7.5, 7.5, 7.5, 7.5, 7.5, 7.5, 0.0, 0.0, 7.5, 7.5, 7.5, 0, 0, 7.5, 0, 0, 0, 7.5, 0, 0, 0, 0, 0, 7.5, 7.5, 0, 0, 0, 0, 0, 0, 7.5, 7.5, 0, 0, 7.5, 0, 0, 0, 0, 0, 0, 7.5, 0, 0, 0, 0, 0, 7.5, 0, 0, 0, 0, 7.5, 0, 0, 0, 0, 0, 0, 0, 0, 0, 0, 0, 0, 0, 0, 7.5, 7.5, 7.5, 7.5, 0, 0, 0, 0, 0, 0, 0, 0, 7.5, 0, 0, 0, 7.5, 0, 7.5, 0, 0, 0, 0, 0, 0, 0, 0, 0, 7.5, 0, 0, 0, 0, 0, 0, 0, 0, 0, 7.5, 7.5, 0, 0, 0, 7.5, 7.5, 0.0, 7.5, 7.5, 7.5, 0.0, 7.5, 7.5, 7.5, 7.5, 7.5, 0.0, 0.0, 7.5, 7.5, 7.5, 7.5, 7.5, 7.5, 0.0, 0.0, 7.5, 7.5, 0.0, 7.5, 7.5, 7.5, 7.5, 7.5, 7.5, 0.0, 7.5, 7.5, 7.5, 7.5, 7.5, 0.0, 7.5, 7.5, 7.5, 7.5, 0.0, 7.5, 7.5, 7.5, 7.5, 7.5, 7.5, 7.5, 7.5, 7.5, 7.5, 7.5, 7.5, 7.5, 7.5, 0.0, 0.0, 0.0, 0.0, 7.5, 7.5, 7.5, 7.5, 7.5, 7.5, 7.5, 7.5, 0.0, 7.5, 7.5, 7.5, 0.0, 7.5, 0.0, 7.5, 7.5, 7.5, 7.5, 7.5, 7.5, 7.5, 7.5, 7.5, 0.0, 7.5, 7.5, 7.5, 7.5, 7.5, 7.5, 7.5, 7.5, 7.5, 0.0, 0.0, 7.5, 7.5, 7.5, 0, 0, 7.5, 0, 0, 0, 7.5, 0, 0, 0, 0, 0, 7.5, 7.5, 0, 0, 0, 0, 0, 0, 7.5, 7.5, 0, 0, 7.5, 0, 0, 0, 0, 0, 0, 7.5, 0, 0, 0, 0, 0, 7.5, 0, 0, 0, 0, 7.5, 0, 0, 0, 0, 0, 0, 0, 0, 0, 0, 0, 0, 0, 0, 7.5, 7.5, 7.5, 7.5, 0, 0, 0, 0, 0, 0, 0, 0, 7.5, 0, 0, 0, 7.5, 0, 7.5, 0, 0, 0, 0, 0, 0, 0, 0, 0, 7.5, 0, 0, 0, 0, 0, 0, 0, 0, 0, 7.5, 7.5, 0, 0, 0, 0, 0, 7.5, 0, 0, 0, 7.5, 0, 0, 0, 0, 0, 7.5, 7.5, 0, 0, 0, 0, 0, 0, 7.5, 7.5, 0, 0, 7.5, 0, 0, 0, 0, 0, 0, 7.5, 0, 0, 0, 0, 0, 7.5, 0, 0, 0, 0, 7.5, 0, 0, 0, 0, 0, 0, 0, 0, 0, 0, 0, 0, 0, 0, 7.5, 7.5, 7.5, 7.5, 0, 0, 0, 0, 0, 0, 0, 0, 7.5, 0, 0, 0, 7.5, 0, 7.5, 0, 0, 0, 0, 0, 0, 0, 0, 0, 7.5, 0, 0, 0, 0, 0, 0, 0, 0, 0, 7.5, 7.5, 0, 0, 0, 0, 0, 7.5, 0, 0, 0, 7.5, 0, 0, 0, 0, 0, 7.5, 7.5, 0, 0, 0, 0, 0, 0, 7.5, 7.5, 0, 0, 7.5, 0, 0, 0, 0, 0, 0, 7.5, 0, 0, 0, 0, 0, 7.5, 0, 0, 0, 0, 7.5, 0, 0, 0, 0, 0, 0, 0, 0, 0, 0, 0, 0, 0, 0, 7.5, 7.5, 7.5, 7.5, 0, 0, 0, 0, 0, 0, 0, 0, 7.5, 0, 0, 0, 7.5, 0, 7.5, 0, 0, 0, 0, 0, 0, 0, 0, 0, 7.5, 0, 0, 0, 0, 0, 0, 0, 0, 0, 7.5, 7.5, 0, 0, 0, 0, 0, 7.5, 0, 0, 0, 7.5, 0, 0, 0, 0, 0, 7.5, 7.5, 0, 0, 0, 0, 0, 0, 7.5, 7.5, 0, 0, 7.5, 0, 0, 0, 0, 0, 0, 7.5, 0, 0, 0, 0, 0, 7.5, 0, 0, 0, 0, 7.5, 0, 0, 0, 0, 0, 0, 0, 0, 0, 0, 0, 0, 0, 0, 7.5, 7.5, 7.5, 7.5, 0, 0, 0, 0, 0, 0, 0, 0, 7.5, 0, 0, 0, 7.5, 0, 7.5, 0, 0, 0, 0, 0, 0, 0, 0, 0, 7.5, 0, 0, 0, 0, 0, 0, 0, 0, 0, 7.5, 7.5, 0, 0, 0, 0, 0, 7.5, 0, 0, 0, 7.5, 0, 0, 0, 0, 0, 7.5, 7.5, 0, 0, 0, 0, 0, 0, 7.5, 7.5, 0, 0, 7.5, 0, 0, 0, 0, 0, 0, 7.5, 0, 0, 0, 0, 0, 7.5, 0, 0, 0, 0, 7.5, 0, 0, 0, 0, 0, 0, 0, 0, 0, 0, 0, 0, 0, 0, 7.5, 7.5, 7.5, 7.5, 0, 0, 0, 0, 0, 0, 0, 0, 7.5, 0, 0, 0, 7.5, 0, 7.5, 0, 0, 0, 0, 0, 0, 0, 0, 0, 7.5, 0, 0, 0, 0, 0, 0, 0, 0, 0, 7.5, 7.5, 0, 0, 0, 0, 0, 7.5, 0, 0, 0, 7.5, 0, 0, 0, 0, 0, 7.5, 7.5, 0, 0, 0, 0, 0, 0, 7.5, 7.5, 0, 0, 7.5, 0, 0, 0, 0, 0, 0, 7.5, 0, 0, 0, 0, 0, 7.5, 0, 0, 0, 0, 7.5, 0, 0, 0, 0, 0, 0, 0, 0, 0, 0, 0, 0, 0, 0, 7.5, 7.5, 7.5, 7.5, 0, 0, 0, 0, 0, 0, 0, 0, 7.5, 0, 0, 0, 7.5, 0, 7.5, 0, 0, 0, 0, 0, 0, 0, 0, 0, 7.5, 0, 0, 0, 0, 0, 0, 0, 0, 0, 7.5, 7.5, 0, 0, 0, 0, 0, 7.5, 0, 0, 0, 7.5, 0, 0, 0, 0, 0, 7.5, 7.5, 0, 0, 0, 0, 0, 0, 7.5, 7.5, 0, 0, 7.5, 0, 0, 0, 0, 0, 0, 7.5, 0, 0, 0, 0, 0, 7.5, 0, 0, 0, 0, 7.5, 0, 0, 0, 0, 0, 0, 0, 0, 0, 0, 0, 0, 0, 0, 7.5, 7.5, 7.5, 7.5, 0, 0, 0, 0, 0, 0, 0, 0, 7.5, 0, 0, 0, 7.5, 0, 7.5, 0, 0, 0, 0, 0, 0, 0, 0, 0, 7.5, 0, 0, 0, 0, 0, 0, 0, 0, 0, 7.5, 7.5, 0, 0, 0, 0, 0, 7.5, 0, 0, 0, 7.5, 0, 0, 0, 0, 0, 7.5, 7.5, 0, 0, 0, 0, 0, 0, 7.5, 7.5, 0, 0, 7.5, 0, 0, 0, 0, 0, 0, 7.5, 0, 0, 0, 0, 0, 7.5, 0, 0, 0, 0, 7.5, 0, 0, 0, 0, 0, 0, 0, 0, 0, 0, 0, 0, 0, 0, 7.5, 7.5, 7.5, 7.5, 0, 0, 0, 0, 0, 0, 0, 0, 7.5, 0, 0, 0, 7.5, 0, 7.5, 0, 0, 0, 0, 0, 0, 0, 0, 0, 7.5, 0, 0, 0, 0, 0, 0, 0, 0, 0, 7.5, 7.5, 0, 0, 0, 0, 0, 7.5, 0, 0, 0, 7.5, 0, 0, 0, 0, 0, 7.5, 7.5, 0, 0, 0, 0, 0, 0, 7.5, 7.5, 0, 0, 7.5, 0, 0, 0, 0, 0, 0, 7.5, 0, 0, 0, 0, 0, 7.5, 0, 0, 0, 0, 7.5, 0, 0, 0, 0, 0, 0, 0, 0, 0, 0, 0, 0, 0, 0, 7.5, 7.5, 7.5, 7.5, 0, 0, 0, 0, 0, 0, 0, 0, 7.5, 0, 0, 0, 7.5, 0, 7.5, 0, 0, 0, 0, 0, 0, 0, 0, 0, 7.5, 0, 0, 0, 0, 0, 0, 0, 0, 0, 7.5, 7.5, 0, 0, 0, 7.5, 7.5, 0.0, 7.5, 7.5, 7.5, 0.0, 7.5, 7.5, 7.5, 7.5, 7.5, 0.0, 0.0, 7.5, 7.5, 7.5, 7.5, 7.5, 7.5, 0.0, 0.0, 7.5, 7.5, 0.0, 7.5, 7.5, 7.5, 7.5, 7.5, 7.5, 0.0, 7.5, 7.5, 7.5, 7.5, 7.5, 0.0, 7.5, 7.5, 7.5, 7.5, 0.0, 7.5, 7.5, 7.5, 7.5, 7.5, 7.5, 7.5, 7.5, 7.5, 7.5, 7.5, 7.5, 7.5, 7.5, 0.0, 0.0, 0.0, 0.0, 7.5, 7.5, 7.5, 7.5, 7.5, 7.5, 7.5, 7.5, 0.0, 7.5, 7.5, 7.5, 0.0, 7.5, 0.0, 7.5, 7.5, 7.5, 7.5, 7.5, 7.5, 7.5, 7.5, 7.5, 0.0, 7.5, 7.5, 7.5, 7.5, 7.5, 7.5, 7.5, 7.5, 7.5, 0.0, 0.0, 7.5, 7.5, 7.5, 0, 0, 7.5, 0, 0, 0, 7.5, 0, 0, 0, 0, 0, 7.5, 7.5, 0, 0, 0, 0, 0, 0, 7.5, 7.5, 0, 0, 7.5, 0, 0, 0, 0, 0, 0, 7.5, 0, 0, 0, 0, 0, 7.5, 0, 0, 0, 0, 7.5, 0, 0, 0, 0, 0, 0, 0, 0, 0, 0, 0, 0, 0, 0, 7.5, 7.5, 7.5, 7.5, 0, 0, 0, 0, 0, 0, 0, 0, 7.5, 0, 0, 0, 7.5, 0, 7.5, 0, 0, 0, 0, 0, 0, 0, 0, 0, 7.5, 0, 0, 0, 0, 0, 0, 0, 0, 0, 7.5, 7.5, 0, 0, 0, 0, 0, 7.5, 0, 0, 0, 7.5, 0, 0, 0, 0, 0, 7.5, 7.5, 0, 0, 0, 0, 0, 0, 7.5, 7.5, 0, 0, 7.5, 0, 0, 0, 0, 0, 0, 7.5, 0, 0, 0, 0, 0, 7.5, 0, 0, 0, 0, 7.5, 0, 0, 0, 0, 0, 0, 0, 0, 0, 0, 0, 0, 0, 0, 7.5, 7.5, 7.5, 7.5, 0, 0, 0, 0, 0, 0, 0, 0, 7.5, 0, 0, 0, 7.5, 0, 7.5, 0, 0, 0, 0, 0, 0, 0, 0, 0, 7.5, 0, 0, 0, 0, 0, 0, 0, 0, 0, 7.5, 7.5, 0, 0, 0, 0, 0, 7.5, 0, 0, 0, 7.5, 0, 0, 0, 0, 0, 7.5, 7.5, 0, 0, 0, 0, 0, 0, 7.5, 7.5, 0, 0, 7.5, 0, 0, 0, 0, 0, 0, 7.5, 0, 0, 0, 0, 0, 7.5, 0, 0, 0, 0, 7.5, 0, 0, 0, 0, 0, 0, 0, 0, 0, 0, 0, 0, 0, 0, 7.5, 7.5, 7.5, 7.5, 0, 0, 0, 0, 0, 0, 0, 0, 7.5, 0, 0, 0, 7.5, 0, 7.5, 0, 0, 0, 0, 0, 0, 0, 0, 0, 7.5, 0, 0, 0, 0, 0, 0, 0, 0, 0, 7.5, 7.5, 0, 0, 0, 0, 0, 7.5, 0, 0, 0, 7.5, 0, 0, 0, 0, 0, 7.5, 7.5, 0, 0, 0, 0, 0, 0, 7.5, 7.5, 0, 0, 7.5, 0, 0, 0, 0, 0, 0, 7.5, 0, 0, 0, 0, 0, 7.5, 0, 0, 0, 0, 7.5, 0, 0, 0, 0, 0, 0, 0, 0, 0, 0, 0, 0, 0, 0, 7.5, 7.5, 7.5, 7.5, 0, 0, 0, 0, 0, 0, 0, 0, 7.5, 0, 0, 0, 7.5, 0, 7.5, 0, 0, 0, 0, 0, 0, 0, 0, 0, 7.5, 0, 0, 0, 0, 0, 0, 0, 0, 0, 7.5, 7.5, 0, 0, 0, 0, 0, 7.5, 0, 0, 0, 7.5, 0, 0, 0, 0, 0, 7.5, 7.5, 0, 0, 0, 0, 0, 0, 7.5, 7.5, 0, 0, 7.5, 0, 0, 0, 0, 0, 0, 7.5, 0, 0, 0, 0, 0, 7.5, 0, 0, 0, 0, 7.5, 0, 0, 0, 0, 0, 0, 0, 0, 0, 0, 0, 0, 0, 0, 7.5, 7.5, 7.5, 7.5, 0, 0, 0, 0, 0, 0, 0, 0, 7.5, 0, 0, 0, 7.5, 0, 7.5, 0, 0, 0, 0, 0, 0, 0, 0, 0, 7.5, 0, 0, 0, 0, 0, 0, 0, 0, 0, 7.5, 7.5, 0, 0, 0, 0, 0, 7.5, 0, 0, 0, 7.5, 0, 0, 0, 0, 0, 7.5, 7.5, 0, 0, 0, 0, 0, 0, 7.5, 7.5, 0, 0, 7.5, 0, 0, 0, 0, 0, 0, 7.5, 0, 0, 0, 0, 0, 7.5, 0, 0, 0, 0, 7.5, 0, 0, 0, 0, 0, 0, 0, 0, 0, 0, 0, 0, 0, 0, 7.5, 7.5, 7.5, 7.5, 0, 0, 0, 0, 0, 0, 0, 0, 7.5, 0, 0, 0, 7.5, 0, 7.5, 0, 0, 0, 0, 0, 0, 0, 0, 0, 7.5, 0, 0, 0, 0, 0, 0, 0, 0, 0, 7.5, 7.5, 0, 0, 0, 0, 0, 7.5, 0, 0, 0, 7.5, 0, 0, 0, 0, 0, 7.5, 7.5, 0, 0, 0, 0, 0, 0, 7.5, 7.5, 0, 0, 7.5, 0, 0, 0, 0, 0, 0, 7.5, 0, 0, 0, 0, 0, 7.5, 0, 0, 0, 0, 7.5, 0, 0, 0, 0, 0, 0, 0, 0, 0, 0, 0, 0, 0, 0, 7.5, 7.5, 7.5, 7.5, 0, 0, 0, 0, 0, 0, 0, 0, 7.5, 0, 0, 0, 7.5, 0, 7.5, 0, 0, 0, 0, 0, 0, 0, 0, 0, 7.5, 0, 0, 0, 0, 0, 0, 0, 0, 0, 7.5, 7.5, 0, 0, 0, 0, 0, 7.5, 0, 0, 0, 7.5, 0, 0, 0, 0, 0, 7.5, 7.5, 0, 0, 0, 0, 0, 0, 7.5, 7.5, 0, 0, 7.5, 0, 0, 0, 0, 0, 0, 7.5, 0, 0, 0, 0, 0, 7.5, 0, 0, 0, 0, 7.5, 0, 0, 0, 0, 0, 0, 0, 0, 0, 0, 0, 0, 0, 0, 7.5, 7.5, 7.5, 7.5, 0, 0, 0, 0, 0, 0, 0, 0, 7.5, 0, 0, 0, 7.5, 0, 7.5, 0, 0, 0, 0, 0, 0, 0, 0, 0, 7.5, 0, 0, 0, 0, 0, 0, 0, 0, 0, 7.5, 7.5, 0, 0, 0, 0, 0, 7.5, 0, 0, 0, 7.5, 0, 0, 0, 0, 0, 7.5, 7.5, 0, 0, 0, 0, 0, 0, 7.5, 7.5, 0, 0, 7.5, 0, 0, 0, 0, 0, 0, 7.5, 0, 0, 0, 0, 0, 7.5, 0, 0, 0, 0, 7.5, 0, 0, 0, 0, 0, 0, 0, 0, 0, 0, 0, 0, 0, 0, 7.5, 7.5, 7.5, 7.5, 0, 0, 0, 0, 0, 0, 0, 0, 7.5, 0, 0, 0, 7.5, 0, 7.5, 0, 0, 0, 0, 0, 0, 0, 0, 0, 7.5, 0, 0, 0, 0, 0, 0, 0, 0, 0, 7.5, 7.5, 0, 0, 0, 7.5, 7.5, 0.0, 7.5, 7.5, 7.5, 0.0, 7.5, 7.5, 7.5, 7.5, 7.5, 0.0, 0.0, 7.5, 7.5, 7.5, 7.5, 7.5, 7.5, 0.0, 0.0, 7.5, 7.5, 0.0, 7.5, 7.5, 7.5, 7.5, 7.5, 7.5, 0.0, 7.5, 7.5, 7.5, 7.5, 7.5, 0.0, 7.5, 7.5, 7.5, 7.5, 0.0, 7.5, 7.5, 7.5, 7.5, 7.5, 7.5, 7.5, 7.5, 7.5, 7.5, 7.5, 7.5, 7.5, 7.5, 0.0, 0.0, 0.0, 0.0, 7.5, 7.5, 7.5, 7.5, 7.5, 7.5, 7.5, 7.5, 0.0, 7.5, 7.5, 7.5, 0.0, 7.5, 0.0, 7.5, 7.5, 7.5, 7.5, 7.5, 7.5, 7.5, 7.5, 7.5, 0.0, 7.5, 7.5, 7.5, 7.5, 7.5, 7.5, 7.5, 7.5, 7.5, 0.0, 0.0, 7.5, 7.5, 7.5, 7.5, 7.5, 0.0, 7.5, 7.5, 7.5, 0.0, 7.5, 7.5, 7.5, 7.5, 7.5, 0.0, 0.0, 7.5, 7.5, 7.5, 7.5, 7.5, 7.5, 0.0, 0.0, 7.5, 7.5, 0.0, 7.5, 7.5, 7.5, 7.5, 7.5, 7.5, 0.0, 7.5, 7.5, 7.5, 7.5, 7.5, 0.0, 7.5, 7.5, 7.5, 7.5, 0.0, 7.5, 7.5, 7.5, 7.5, 7.5, 7.5, 7.5, 7.5, 7.5, 7.5, 7.5, 7.5, 7.5, 7.5, 0.0, 0.0, 0.0, 0.0, 7.5, 7.5, 7.5, 7.5, 7.5, 7.5, 7.5, 7.5, 0.0, 7.5, 7.5, 7.5, 0.0, 7.5, 0.0, 7.5, 7.5, 7.5, 7.5, 7.5, 7.5, 7.5, 7.5, 7.5, 0.0, 7.5, 7.5, 7.5, 7.5, 7.5, 7.5, 7.5, 7.5, 7.5, 0.0, 0.0, 7.5, 7.5, 7.5, 0, 0, 7.5, 0, 0, 0, 7.5, 0, 0, 0, 0, 0, 7.5, 7.5, 0, 0, 0, 0, 0, 0, 7.5, 7.5, 0, 0, 7.5, 0, 0, 0, 0, 0, 0, 7.5, 0, 0, 0, 0, 0, 7.5, 0, 0, 0, 0, 7.5, 0, 0, 0, 0, 0, 0, 0, 0, 0, 0, 0, 0, 0, 0, 7.5, 7.5, 7.5, 7.5, 0, 0, 0, 0, 0, 0, 0, 0, 7.5, 0, 0, 0, 7.5, 0, 7.5, 0, 0, 0, 0, 0, 0, 0, 0, 0, 7.5, 0, 0, 0, 0, 0, 0, 0, 0, 0, 7.5, 7.5, 0, 0, 0, 0, 0, 7.5, 0, 0, 0, 7.5, 0, 0, 0, 0, 0, 7.5, 7.5, 0, 0, 0, 0, 0, 0, 7.5, 7.5, 0, 0, 7.5, 0, 0, 0, 0, 0, 0, 7.5, 0, 0, 0, 0, 0, 7.5, 0, 0, 0, 0, 7.5, 0, 0, 0, 0, 0, 0, 0, 0, 0, 0, 0, 0, 0, 0, 7.5, 7.5, 7.5, 7.5, 0, 0, 0, 0, 0, 0, 0, 0, 7.5, 0, 0, 0, 7.5, 0, 7.5, 0, 0, 0, 0, 0, 0, 0, 0, 0, 7.5, 0, 0, 0, 0, 0, 0, 0, 0, 0, 7.5, 7.5, 0, 0, 0, 0, 0, 7.5, 0, 0, 0, 7.5, 0, 0, 0, 0, 0, 7.5, 7.5, 0, 0, 0, 0, 0, 0, 7.5, 7.5, 0, 0, 7.5, 0, 0, 0, 0, 0, 0, 7.5, 0, 0, 0, 0, 0, 7.5, 0, 0, 0, 0, 7.5, 0, 0, 0, 0, 0, 0, 0, 0, 0, 0, 0, 0, 0, 0, 7.5, 7.5, 7.5, 7.5, 0, 0, 0, 0, 0, 0, 0, 0, 7.5, 0, 0, 0, 7.5, 0, 7.5, 0, 0, 0, 0, 0, 0, 0, 0, 0, 7.5, 0, 0, 0, 0, 0, 0, 0, 0, 0, 7.5, 7.5, 0, 0, 0]);
